HUN,8,6,48
0,66,3,50,5,90,1,63,2,52,4,100
4,33,0,57,2,92,1,20,5,57,3,62
4,14,1,99,2,11,3,6,0,53,5,85
2,48,5,17,0,90,4,96,3,68,1,82
3,87,1,5,2,93,0,46,4,96,5,54
1,79,0,25,4,34,2,81,3,80,5,1
0,99,4,9,5,31,2,2,1,97,3,65
5,46,0,85,3,9,1,22,4,54,2,73
